Minimize
  - 42 y_0 - 51 y_1 - 62 y_2 - 83 y_3 - 40 y_4 - 16 y_5 - 39 y_6 - 49 y_7
   - 38 y_8 + 420 Constant
Subject To
 c_0: y_3 = 1
 c_1_0: y_0 + y_4 + y_7 >= 1
 c_1_1: y_1 + y_7 >= 1
 c_1_2: y_2 >= 1
 c_1_3: y_3 >= 1
 c_1_4: y_0 + y_4 + y_7 >= 1
 c_1_5: y_5 + y_9 >= 1
 c_1_6: y_6 + y_8 >= 1
 c_1_7: y_0 + y_1 + y_4 + y_7 >= 1
 c_1_8: y_6 + y_8 >= 1
 c_1_9: y_5 + y_9 >= 1
Bounds
 Constant = 1
Binaries
 y_0 y_1 y_2 y_3 y_4 y_5 y_6 y_7 y_8 y_9
End
